\* Problem: optmisation_tournee *\

Minimize
 obj: + 668 x_1 + 668 x_2 + 668 x_3 + 668 x_4 + 668 x_5 + 668 x_6
 + 668 x_7 + 668 x_8 + 668 x_9 + 668 x_10 + 668 x_11 + 668 x_12
 + 668 x_13 + 668 x_14 + 668 x_15 + 668 x_16 + 668 x_17 + 668 x_18
 + 668 x_19 + 668 x_20 + 668 x_21 + 668 x_22 + 668 x_23 + 668 x_24
 + 668 x_25 + 668 x_26 + 668 x_27

Subject To
 r_1: + x_27 + x_24 + x_22 + x_20 + x_18 + x_16 + x_13 + x_11 + x_9
 + x_7 + x_5 + x_3 + x_1 = 1
 r_2: + x_25 + x_22 + x_21 + x_18 + x_17 + x_14 + x_11 + x_10 + x_7
 + x_6 + x_3 + x_2 = 1
 r_3: + x_27 + x_26 + x_22 + x_21 + x_20 + x_19 + x_14 + x_13 + x_12
 + x_7 + x_6 + x_5 + x_4 = 1
 r_4: + x_27 + x_26 + x_25 + x_24 + x_23 + x_14 + x_13 + x_12 + x_11
 + x_10 + x_9 + x_8 = 1
 r_5: + x_27 + x_26 + x_25 + x_24 + x_23 + x_22 + x_21 + x_20 + x_19
 + x_18 + x_17 + x_16 + x_15 = 1

Bounds
 0 <= x_1 <= 1
 0 <= x_2 <= 1
 0 <= x_3 <= 1
 0 <= x_4 <= 1
 0 <= x_5 <= 1
 0 <= x_6 <= 1
 0 <= x_7 <= 1
 0 <= x_8 <= 1
 0 <= x_9 <= 1
 0 <= x_10 <= 1
 0 <= x_11 <= 1
 0 <= x_12 <= 1
 0 <= x_13 <= 1
 0 <= x_14 <= 1
 0 <= x_15 <= 1
 0 <= x_16 <= 1
 0 <= x_17 <= 1
 0 <= x_18 <= 1
 0 <= x_19 <= 1
 0 <= x_20 <= 1
 0 <= x_21 <= 1
 0 <= x_22 <= 1
 0 <= x_23 <= 1
 0 <= x_24 <= 1
 0 <= x_25 <= 1
 0 <= x_26 <= 1
 0 <= x_27 <= 1

Generals
 x_1
 x_2
 x_3
 x_4
 x_5
 x_6
 x_7
 x_8
 x_9
 x_10
 x_11
 x_12
 x_13
 x_14
 x_15
 x_16
 x_17
 x_18
 x_19
 x_20
 x_21
 x_22
 x_23
 x_24
 x_25
 x_26
 x_27

End
